6,7	0,0	11,9	18,9	0,0	0,0	0,0	0,0	0,0	11,5
9,7	9,7	0,0	16,3	19,6	0,0	0,0	5,5	0,0	0,0
0,0	0,0	6,6	0,0	10,2	13,8	0,0	0,0	15,8	0,0
13,0	0,0	11,1	0,0	0,0	0,0	9,5	0,0	0,0	0,0
0,0	11,3	0,0	7,5	13,9	0,0	0,0	9,1	0,0	0,0
0,0	19,9	17,2	0,0	5,9	15,6	0,0	0,0	9,3	0,0
0,0	10,2	0,0	19,8	0,0	0,0	16,3	0,0	0,0	8,4
18,9	0,0	12,4	0,0	0,0	0,0	0,0	0,0	0,0	7,9
0,0	11,7	0,0	10,9	7,9	0,0	0,0	7,4	0,0	0,0
0,0	0,0	8,2	0,0	0,0	12,7	18,2	0,0	0,0	7,8
									
4,4	3,1	2,9	2,9	2,9	3,3	4,1	5,0	3,8	5,0
